solution status: optimal solution found
objective value:                                    0
$_117_y                                            -5 	(obj:0)
$_117_z                                            -5 	(obj:0)
$_131_y                                            -6 	(obj:0)
$_131_z                                            -6 	(obj:0)
$_124_y                                            -6 	(obj:0)
$_124_z                                            -7 	(obj:0)
$_116_y                                            -4 	(obj:0)
$_116_z                                            -5 	(obj:0)
$_108_y                                            -4 	(obj:0)
$_108_z                                            -6 	(obj:0)
$_115_y                                            -4 	(obj:0)
$_115_z                                            -7 	(obj:0)
$_123_y                                            -5 	(obj:0)
$_123_z                                            -7 	(obj:0)
$_129_y                                            -7 	(obj:0)
$_129_z                                            -6 	(obj:0)
$_109_y                                            -4 	(obj:0)
$_109_z                                            -3 	(obj:0)
$_110_y                                            -5 	(obj:0)
$_110_z                                            -3 	(obj:0)
$_130_y                                            -7 	(obj:0)
$_130_z                                            -7 	(obj:0)
$_122_y                                            -5 	(obj:0)
$_122_z                                            -6 	(obj:0)
